clingo version 5.4.1
Reading from provaASP6.lp
Solving...
Answer: 1
assign(1,14,1) assign(2,7,1) assign(3,16,3) assign(4,12,4) assign(5,2,2) assign(6,14,1) assign(7,16,3) assign(8,7,1) assign(9,12,4) assign(10,9,4) assign(11,13,1) assign(12,9,4) assign(13,15,1) assign(14,7,1) assign(15,12,4) assign(16,2,2) assign(17,13,1) assign(18,10,4) assign(19,15,1) assign(20,13,1) assign(21,10,4) assign(22,10,4) assign(23,15,1) assign(24,10,4) assign(25,9,4) assign(26,13,1) assign(27,15,1) assign(28,12,4) assign(29,14,1) assign(30,14,1) count_seats_occupied(1,7,3) count_seats_occupied(1,13,4) count_seats_occupied(1,14,4) count_seats_occupied(1,15,4) count_seats_occupied(2,1,0) count_seats_occupied(2,2,2) count_seats_occupied(2,3,0) count_seats_occupied(2,4,0) count_seats_occupied(3,5,0) count_seats_occupied(3,6,0) count_seats_occupied(3,8,0) count_seats_occupied(3,16,2) count_seats_occupied(4,9,3) count_seats_occupied(4,10,4) count_seats_occupied(4,11,0) count_seats_occupied(4,12,4)
Optimization: 4
Answer: 2
assign(1,11,3) assign(2,12,1) assign(3,11,3) assign(4,3,3) assign(5,1,4) assign(6,7,1) assign(7,3,3) assign(8,11,3) assign(9,3,3) assign(10,16,4) assign(11,4,4) assign(12,16,4) assign(13,8,3) assign(14,12,1) assign(15,3,3) assign(16,7,1) assign(17,4,4) assign(18,10,1) assign(19,10,1) assign(20,4,4) assign(21,9,1) assign(22,15,4) assign(23,12,1) assign(24,15,4) assign(25,16,4) assign(26,4,4) assign(27,12,1) assign(28,10,1) assign(29,11,3) assign(30,10,1) count_seats_occupied(1,7,2) count_seats_occupied(1,9,1) count_seats_occupied(1,10,4) count_seats_occupied(1,12,4) count_seats_occupied(2,5,0) count_seats_occupied(2,6,0) count_seats_occupied(2,13,0) count_seats_occupied(2,14,0) count_seats_occupied(3,2,0) count_seats_occupied(3,3,4) count_seats_occupied(3,8,1) count_seats_occupied(3,11,4) count_seats_occupied(4,1,1) count_seats_occupied(4,4,4) count_seats_occupied(4,15,2) count_seats_occupied(4,16,3)
Optimization: 3
Answer: 3
assign(1,1,4) assign(2,2,1) assign(3,9,1) assign(4,14,1) assign(5,10,4) assign(6,9,1) assign(7,2,1) assign(8,14,1) assign(9,14,1) assign(10,8,4) assign(11,4,4) assign(12,8,4) assign(13,9,1) assign(14,2,1) assign(15,14,1) assign(16,10,4) assign(17,4,4) assign(18,3,1) assign(19,9,1) assign(20,4,4) assign(21,3,1) assign(22,1,4) assign(23,3,1) assign(24,1,4) assign(25,8,4) assign(26,4,4) assign(27,2,1) assign(28,8,4) assign(29,1,4) assign(30,10,4) count_seats_occupied(1,2,4) count_seats_occupied(1,3,3) count_seats_occupied(1,9,4) count_seats_occupied(1,14,4) count_seats_occupied(2,6,0) count_seats_occupied(2,12,0) count_seats_occupied(2,13,0) count_seats_occupied(2,15,0) count_seats_occupied(3,5,0) count_seats_occupied(3,7,0) count_seats_occupied(3,11,0) count_seats_occupied(3,16,0) count_seats_occupied(4,1,4) count_seats_occupied(4,4,4) count_seats_occupied(4,8,4) count_seats_occupied(4,10,3)
Optimization: 2
OPTIMUM FOUND

Models       : 3
  Optimum    : yes
Optimization : 2
Calls        : 1
Time         : 0.196s (Solving: 0.05s 1st Model: 0.00s Unsat: 0.01s)
CPU Time     : 0.181s
